GLPSOL--GLPK LP/MIP Solver 5.0
Parameter(s) specified in the command line:
 --lp ../modeles/2_249.lp --log 2_249.log
Reading problem data from '../modeles/2_249.lp'...
507 rows, 1000 columns, 3496 non-zeros
498 integer variables, all of which are binary
1515 lines were read
GLPK Integer Optimizer 5.0
507 rows, 1000 columns, 3496 non-zeros
498 integer variables, all of which are binary
Preprocessing...
492 constraint coefficient(s) were reduced
507 rows, 998 columns, 3494 non-zeros
498 integer variables, all of which are binary
Scaling...
 A: min|aij| =  6.452e-05  max|aij| =  4.000e+00  ratio =  6.200e+04
GM: min|aij| =  6.337e-02  max|aij| =  1.578e+01  ratio =  2.490e+02
EQ: min|aij| =  4.016e-03  max|aij| =  1.000e+00  ratio =  2.490e+02
2N: min|aij| =  3.906e-03  max|aij| =  1.773e+00  ratio =  4.539e+02
Constructing initial basis...
Size of triangular part is 507
Solving LP relaxation...
GLPK Simplex Optimizer 5.0
507 rows, 998 columns, 3494 non-zeros
      0: obj =   4.000000000e+00 inf =   9.500e+00 (5)
     29: obj =   4.999435484e-01 inf =   0.000e+00 (0)
*   125: obj =  -1.414122399e+00 inf =   6.215e-17 (0)
OPTIMAL LP SOLUTION FOUND
Integer optimization begins...
Long-step dual simplex will be used
+   125: mip =     not found yet >=              -inf        (1; 0)
+   270: >>>>>  -1.414122399e+00 >=  -1.414122399e+00   0.0% (145; 0)
+   270: mip =  -1.414122399e+00 >=     tree is empty   0.0% (0; 289)
INTEGER OPTIMAL SOLUTION FOUND
Time used:   0.1 secs
Memory used: 1.5 Mb (1579354 bytes)
